(declare-fun v0 () (_ BitVec 15))
(declare-fun v8 () (_ BitVec 16))
(declare-fun v10 ()Bool          )
(assert
(let (($e14 true     ))
(let (($e15 (_ bv0 15)))
(let (($e17 (_ bv0 14)))
(let (($e100                   $e14     ))
(let (($e154 (concat $e15 $e100)))
(let (($e155      (bvult v8 $e154)         ))
(let (($e156             $e155           ))
(let (($e330                    v10 ))
(let (($e333                     $e330  ))
(let (($e336               $e333                ))
(let (($e337             $e336           ))
(let (($e802 (concat $e17 $e156)))
(let (($e803 (bvand $e802 v0)))
(let (($e804             $e337 ))
(let (($e805                  $e804 ))
(let (($e806              $e805          ))
(let (($e807             $e806 ))
(let (($e808 (ite        $e807  $e803 $e802)))
(let (($e810               $e808                ))
(let (($e811               $e810                ))
(let (($e922 (   extract        $e811)))
(let (($e2064                      $e922  ))
(let (($e2067               $e2064                 ))
(let (($e2068        $e2067                ))
(let (($e2070                              $e2068  ))
(let (($e2071         $e2070                 ))
(let (($e2072             $e2071 ))
(let (($e2073        $e2072        ))
(let (($e2111                   v8 ))
(let (($e2112               $e2111 ))
(let (($e2115                $e2112 ))
(let (($e2119 (   extract      $e2115)))
(let (($e2121                     $e2119  ))
(let (($e2124               $e2121                 ))
(let (($e2125        $e2124                ))
(let (($e2126        $e2125                ))
(let (($e2181                                   $e2126  ))
(let (($e2205                $e2181          ))
(let (($e2206             $e2205 ))
(let (($e2210                $e2206          ))
(let (($e2211             $e2210 ))
(let (($e2290                      $e2211  ))
(let (($e2292        $e2290        ))
(let (($e2293               $e2292                 ))
              (bvand $e2293        $e2073 )
                                                                                                                                                                                                                                                                                                                                                                                                                                                                                                                                                                                                                                                                                                                                                                                                                                                                                                                                                                                                                                                                                                                                                                                                                                                                                                                                                                                                                                                                                                                                                                                                                                                                                                                                                                                                                                                                                                                                                                                                                )) )                                                                              ))   ))                       )                                                      )))  ) )   )  ))                                     )))) ))  )                                                                                                                                                                                                                                                                                                                                                                                                                                                                                                                                                                                                                                                                                                                                                                                                                                                                                                                                                                                                                                                                                                                                                                                     )                                                                                                              )) )))))))                                                                                                                                                                                                                                                                                                                                                                                                                                                                                ))  )  )                                                                                                                                                                             )))                                                     )                                                      ) ))             )
